10J3M/DAT/10J3MNLX-7.dat
10 3
18.6835 4.3224
20.9762 4.58
28.135 5.3042
27.0494 5.2009
18.7205 4.3267
25.4614 5.0459
27.0731 5.2032
24.6837 4.9683
27.2175 5.217
28.0332 5.2946
16.4877