10J3M/SOL/10J3MNLX-7.sol
solution status: optimal solution found
objective value:                              78.1672
x#1#3                                               1 	(obj:0)
x#2#2                                               1 	(obj:0)
x#3#1                               0.828270714312654 	(obj:0)
x#3#2                               0.171729285687346 	(obj:0)
x#4#1                                               1 	(obj:0)
x#5#2                               0.757205683172329 	(obj:0)
x#5#3                               0.242794316827671 	(obj:0)
x#6#2                                               1 	(obj:0)
x#7#1                               0.502390623407639 	(obj:0)
x#7#2                                0.39977663305346 	(obj:0)
x#7#3                              0.0978327435389003 	(obj:0)
x#8#3                                               1 	(obj:0)
x#9#1                                               1 	(obj:0)
x#10#3                                              1 	(obj:0)
z                                             78.1672 	(obj:1)
